
List of user-set options:

                                    Name   Value                used
                           linear_solver = ma57                  yes
                  ma57_automatic_scaling = yes                   yes
                                max_iter = 1000                  yes
                             mu_strategy = adaptive              yes
                             output_file = Reusable-Launch-Vehicle-Entry-ProblemIPOPTinfo.txt  yes
                             print_level = 5                     yes
                      print_user_options = yes                   yes
                                     tol = 1e-007                yes
This is Ipopt version 3.11.0, running with linear solver ma57.

Number of nonzeros in equality constraint Jacobian...:    45684
Number of nonzeros in inequality constraint Jacobian.:      496
Number of nonzeros in Lagrangian Hessian.............:    15119

Reallocating memory for MA57: lfact (452988)
Total number of variables............................:     3005
                     variables with only lower bounds:        0
                variables with lower and upper bounds:     3005
                     variables with only upper bounds:        0
Total number of equality constraints.................:     2369
Total number of inequality constraints...............:      249
        inequality constraints with only lower bounds:        0
   inequality constraints with lower and upper bounds:      249
        inequality constraints with only upper bounds:        0

iter    objective    inf_pr   inf_du lg(mu)  ||d||  lg(rg) alpha_du alpha_pr  ls
   0 -8.4824059e-003 1.13e+001 2.54e-003   0.0 0.00e+000    -  0.00e+000 0.00e+000   0
   1 -9.3903407e-003 1.11e+001 6.58e+001  -1.7 2.78e+001    -  3.77e-002 1.66e-002h  1
   2 -1.0738460e-002 1.10e+001 4.50e+002  -0.1 6.62e+001    -  5.53e-002 6.21e-003f  1
   3 -1.0718941e-002 1.10e+001 8.76e+002  -5.6 4.59e+001  -4.0 1.07e-002 7.10e-004h  1
   4 -1.0237358e-002 1.09e+001 2.04e+003  -0.9 9.74e+001    -  2.51e-002 9.46e-003h  1
   5 -9.4769802e-003 1.09e+001 4.83e+003   1.2 3.49e+002    -  9.89e-003 5.43e-003f  1
   6 -9.3473445e-003 1.08e+001 8.37e+003   0.3 1.26e+002   0.9 9.43e-003 2.49e-003h  2
   7 -9.1622468e-003 1.08e+001 4.99e+003   0.3 3.19e+002   0.5 4.22e-003 2.47e-003f  1
   8 -9.0828565e-003 1.08e+001 5.42e+003   0.3 5.81e+001    -  5.68e-003 1.87e-003h  3
   9 -9.0237537e-003 1.08e+001 6.18e+003   0.3 5.45e+001    -  7.16e-003 1.65e-003h  3
iter    objective    inf_pr   inf_du lg(mu)  ||d||  lg(rg) alpha_du alpha_pr  ls
  10 -9.0054000e-003 1.08e+001 7.78e+003   0.3 7.22e+001    -  6.43e-003 1.70e-003h  3
  11 -9.0066386e-003 1.08e+001 9.24e+003   0.3 1.39e+002    -  2.53e-003 5.01e-004h  4
  12 -9.0001756e-003 1.08e+001 1.84e+004   0.3 1.55e+002    -  8.56e-003 1.52e-004h  6
  13 -9.0005325e-003 1.08e+001 2.34e+004   0.3 2.00e+002    -  3.26e-003 1.72e-005h 10
  14r-9.0005325e-003 1.08e+001 9.99e+002   0.6 0.00e+000    -  0.00e+000 2.99e-007R 16
  15r-9.3321368e-003 9.94e+000 9.93e+002   1.3 3.88e+003    -  1.58e-002 1.00e-003f  1
  16 -9.3468522e-003 9.93e+000 2.40e+003  -0.4 4.07e+001    -  1.59e-001 1.35e-004h  1
  17 -9.2904339e-003 9.92e+000 6.40e+003   0.9 2.68e+002    -  1.10e-002 1.27e-003f  4
  18 -9.2948437e-003 9.91e+000 9.59e+003   0.3 3.40e+002    -  6.13e-003 1.19e-003h  3
  19 -9.2593916e-003 9.89e+000 1.24e+004   0.3 1.55e+002    -  4.51e-003 2.00e-003h  3
iter    objective    inf_pr   inf_du lg(mu)  ||d||  lg(rg) alpha_du alpha_pr  ls
  20 -9.2317756e-003 9.89e+000 1.53e+004   0.3 4.59e+002    -  3.53e-003 5.22e-004h  5
  21 -9.0665347e-003 9.86e+000 3.00e+004   0.3 1.55e+002    -  1.35e-002 2.81e-003h  3
  22 -8.9124537e-003 9.83e+000 3.41e+004   0.9 5.07e+002    -  6.45e-003 2.34e-003f  3
  23 -8.8798904e-003 9.83e+000 3.43e+004   0.3 4.94e+002   0.9 7.57e-004 6.94e-004h  4
  24 -8.8812035e-003 9.82e+000 2.98e+004   0.3 5.41e+002    -  3.68e-003 3.87e-004f  2
  25 -8.8585608e-003 9.82e+000 3.49e+004   0.3 4.04e+002    -  1.21e-002 4.55e-004h  5
  26 -8.8339403e-003 9.82e+000 4.15e+004   0.3 3.82e+002    -  6.72e-003 4.56e-004h  6
  27 -8.7653037e-003 9.81e+000 7.07e+004   0.3 4.14e+002    -  4.42e-003 7.28e-004h  1
  28 -8.6456403e-003 9.80e+000 1.26e+005   0.3 5.69e+002    -  4.90e-003 9.77e-004h  3
  29 -8.7825653e-003 9.79e+000 1.79e+005   0.3 2.05e+003   0.4 3.33e-004 6.32e-004f  1
iter    objective    inf_pr   inf_du lg(mu)  ||d||  lg(rg) alpha_du alpha_pr  ls
  30 -8.7482279e-003 9.79e+000 4.67e+005   0.3 3.58e+001   3.5 4.91e-003 7.21e-004h  2
  31 -8.7380191e-003 9.78e+000 4.99e+005   0.3 6.25e+001   3.1 5.22e-004 2.22e-004h  1
  32 -8.7272669e-003 9.78e+000 5.48e+005   0.3 7.17e+001   2.6 9.65e-004 2.66e-004h  4
  33 -8.7260758e-003 9.78e+000 5.69e+005   0.3 7.14e+001   2.1 4.36e-004 4.49e-005h  7
  34 -8.7257267e-003 9.78e+000 6.30e+005   0.3 6.92e+001   1.6 1.69e-003 2.52e-005h  8
  35 -8.7175213e-003 9.78e+000 6.29e+005   0.3 6.85e+001   2.1 3.93e-004 3.93e-004s 13
  36 -8.7033311e-003 9.77e+000 6.29e+005   0.3 8.67e+001   1.6 9.00e-004 9.00e-004s 13
  37r-8.7033311e-003 9.77e+000 9.99e+002   0.3 0.00e+000   2.0 0.00e+000 0.00e+000R  1
  38r-8.8762765e-003 7.10e+000 9.95e+002   1.0 4.88e+002    -  1.24e-002 1.96e-003f  1
  39 -8.8810041e-003 7.10e+000 4.15e+003  -0.4 3.23e+001    -  1.29e-001 6.46e-005h  1
iter    objective    inf_pr   inf_du lg(mu)  ||d||  lg(rg) alpha_du alpha_pr  ls
  40 -7.8952221e-003 7.03e+000 6.55e+003   1.0 3.64e+002    -  1.71e-002 9.47e-003f  1
  41 -7.8444518e-003 7.02e+000 8.63e+003   0.3 3.63e+001   1.5 4.27e-003 1.24e-003h  1
  42 -7.7404536e-003 6.99e+000 1.92e+004   0.3 3.20e+001   1.1 1.04e-002 3.66e-003h  2
  43 -7.6184298e-003 6.97e+000 2.10e+004   0.3 1.31e+002   0.6 5.14e-003 2.73e-003h  3
  44 -7.6141311e-003 6.97e+000 2.05e+004   0.3 7.31e+002    -  1.16e-003 3.51e-004f  4
  45 -7.5133690e-003 6.96e+000 2.72e+004   0.3 2.44e+002    -  1.13e-002 1.72e-003h  4
  46 -7.4999073e-003 6.95e+000 2.73e+004   0.3 3.43e+002    -  1.11e-003 1.04e-003h  5
  47 -7.4799117e-003 6.94e+000 3.70e+004   0.3 2.91e+002    -  9.34e-003 1.85e-003h  3
  48 -7.4194981e-003 6.93e+000 2.49e+005   0.3 3.09e+001   2.8 1.66e-002 1.31e-003h  1
  49 -7.1070827e-003 6.93e+000 2.51e+005   0.3 5.23e+002   2.3 9.75e-004 6.93e-004h  1
iter    objective    inf_pr   inf_du lg(mu)  ||d||  lg(rg) alpha_du alpha_pr  ls
  50 -7.1225929e-003 6.92e+000 3.44e+005   0.3 7.76e+001   1.9 8.28e-003 1.06e-003h  1
  51 -7.2015676e-003 6.90e+000 3.73e+005   0.3 1.16e+002   1.4 5.64e-003 2.21e-003h  1
  52 -7.0590386e-003 6.89e+000 5.95e+005   0.3 1.98e+002   1.8 6.64e-003 2.29e-003h  1
  53 -7.0236509e-003 6.89e+000 1.57e+006   0.3 1.32e+002   2.2 2.74e-003 3.31e-004h  1
  54 -6.9254593e-003 6.88e+000 3.24e+006   0.3 1.65e+002   2.7 2.02e-003 7.89e-004h  1
  55 -6.9261887e-003 6.88e+000 3.25e+006   0.3 2.37e+002   3.1 3.93e-005 1.40e-005h  1
  56r-6.9261887e-003 6.88e+000 9.99e+002   0.3 0.00e+000   3.5 0.00e+000 4.24e-007R  4
  57r-6.9328126e-003 6.04e+000 1.02e+003   0.3 1.37e+003    -  7.38e-003 1.20e-003f  1
  58 -6.9320105e-003 6.04e+000 7.90e+002  -1.5 8.23e+001    -  2.29e-002 4.50e-005h  1
  59 -6.8764024e-003 6.01e+000 1.10e+003  -0.7 1.08e+002    -  9.18e-003 5.31e-003f  1
iter    objective    inf_pr   inf_du lg(mu)  ||d||  lg(rg) alpha_du alpha_pr  ls
  60 -6.8757486e-003 6.01e+000 2.01e+003  -5.6 3.77e+002    -  1.66e-003 7.38e-005h  1
  61 -6.8698554e-003 6.01e+000 5.88e+003  -0.3 3.99e+002    -  5.64e-003 6.18e-004h  3
  62 -6.6457552e-003 5.88e+000 7.83e+003   0.1 1.24e+002    -  2.50e-002 2.02e-002f  1
  63 -6.6410194e-003 5.88e+000 1.70e+005   0.3 3.77e+001   3.0 5.48e-003 1.65e-004h  1
  64 -6.6240117e-003 5.88e+000 1.76e+005   0.3 5.93e+001   2.6 1.26e-003 1.12e-003h  1
  65 -6.6239175e-003 5.88e+000 1.16e+006   0.3 6.67e+000   5.7 1.65e-004 1.98e-005h  1
  66 -6.6236651e-003 5.88e+000 1.02e+007   0.3 1.84e+001   6.1 2.03e-004 2.44e-005h  1
  67 -6.6227733e-003 5.88e+000 2.63e+007   0.3 3.16e+001   6.5 1.19e-004 4.95e-005h  1
  68 -6.6217909e-003 5.88e+000 1.24e+008   0.3 3.22e+001   7.0 2.05e-004 5.36e-005h  1
  69 -6.6214685e-003 5.88e+000 7.55e+008   0.3 3.24e+001   7.4 3.56e-004 1.78e-005h  1
iter    objective    inf_pr   inf_du lg(mu)  ||d||  lg(rg) alpha_du alpha_pr  ls
  70 -6.6212256e-003 5.88e+000 2.67e+009   0.3 3.28e+001   7.8 3.67e-004 1.36e-005h  1
  71 -6.6209190e-003 5.88e+000 1.06e+010   0.3 3.32e+001   8.3 5.25e-004 1.75e-005h  1
  72 -6.6204942e-003 5.88e+000 1.50e+010   0.3 3.25e+001   7.8 1.09e-003 2.33e-005h  1
  73 -6.6200220e-003 5.88e+000 1.55e+010   0.3 3.35e+001   7.3 3.15e-004 2.72e-005h  1
  74r-6.6200220e-003 5.88e+000 9.99e+002   0.3 0.00e+000   6.8 0.00e+000 3.21e-007R  4
  75r-6.6101644e-003 4.58e+000 1.07e+003   0.4 2.99e+002    -  7.96e-003 2.56e-003f  1
  76 -6.6098734e-003 4.58e+000 6.60e+002  -1.7 4.66e+001    -  3.27e-002 5.97e-005h  1
  77 -6.4962260e-003 4.54e+000 1.36e+003   0.1 1.62e+002    -  1.52e-002 7.85e-003f  1
  78 -6.4866709e-003 4.54e+000 1.71e+004   0.9 3.11e+002    -  1.31e-002 1.10e-003f  1
  79 -6.4744628e-003 4.53e+000 7.84e+004   1.1 4.51e+002    -  1.43e-002 1.86e-003f  2
iter    objective    inf_pr   inf_du lg(mu)  ||d||  lg(rg) alpha_du alpha_pr  ls
  80 -6.4769756e-003 4.53e+000 1.69e+005   0.3 1.86e+002    -  4.98e-003 7.67e-004h  3
  81 -6.4768763e-003 4.52e+000 2.17e+005   0.3 2.73e+002    -  1.93e-003 1.09e-003h  2
  82 -6.4761491e-003 4.52e+000 4.03e+005   0.3 3.23e+002    -  1.63e-003 5.01e-004h  2
  83 -6.4756124e-003 4.52e+000 4.08e+005   0.3 3.03e+002    -  6.54e-004 6.42e-004h  1
  84 -6.4753702e-003 4.52e+000 1.43e+008   0.3 6.68e+000   6.3 2.99e-003 1.64e-005h  1
  85 -6.4753290e-003 4.51e+000 2.97e+008   0.3 7.67e+001   5.9 2.24e-004 1.24e-005h  1
  86 -6.4750693e-003 4.51e+000 3.35e+008   0.3 7.94e+001   5.4 2.10e-004 7.86e-005h  1
  87 -6.4750606e-003 4.51e+000 3.62e+008   0.3 3.86e+001   4.9 1.84e-003 3.60e-005h  1
  88 -6.4748652e-003 4.51e+000 4.39e+008   0.3 1.07e+002   5.3 2.36e-004 6.73e-005h  1
  89 -6.4747994e-003 4.51e+000 1.09e+009   0.3 1.24e+002   5.8 4.63e-004 2.42e-005h  1
iter    objective    inf_pr   inf_du lg(mu)  ||d||  lg(rg) alpha_du alpha_pr  ls
  90 -6.4747160e-003 4.51e+000 8.04e+009   0.3 1.36e+002   6.2 1.53e-003 3.35e-005h  1
  91 -6.4746736e-003 4.51e+000 5.14e+010   0.3 1.45e+002   6.6 2.96e-003 1.85e-005h  1
  92 -6.4746242e-003 4.51e+000 5.41e+010   0.3 1.27e+003   6.1 2.75e-004 2.45e-005h  1
  93r-6.4746242e-003 4.51e+000 9.99e+002   0.3 0.00e+000   6.6 0.00e+000 1.86e-007R  2
  94r-6.4749676e-003 1.98e+000 1.81e+003  -0.4 7.84e+001    -  6.62e-002 9.20e-003f  1
  95r-6.4862030e-003 5.96e-001 1.68e+003   0.2 8.18e+000    -  1.03e-001 6.99e-002f  1
  96r-6.4902826e-003 6.51e-001 1.61e+003  -0.5 3.74e+000    -  1.83e-001 9.89e-002f  1
  97r-6.5421781e-003 7.96e-001 1.18e+003   0.1 4.82e+000    -  3.13e-001 2.88e-001f  1
  98r-6.6972081e-003 9.98e-001 1.10e+003   0.0 4.06e+000    -  4.95e-001 5.98e-001f  1
  99r-6.7173519e-003 1.14e+000 2.41e+003  -0.4 2.40e+000    -  5.92e-001 6.30e-001f  1
iter    objective    inf_pr   inf_du lg(mu)  ||d||  lg(rg) alpha_du alpha_pr  ls
 100r-6.5473141e-003 1.16e+000 4.73e+002  -0.8 1.15e-001   2.0 7.75e-001 7.73e-001f  1
 101r-6.8159784e-003 1.16e+000 2.22e+005   0.5 9.88e-003   6.0 8.99e-001 4.47e-001f  1
 102r-6.8180546e-003 1.16e+000 5.69e+002  -0.2 1.56e-003   5.6 1.00e+000 1.00e+000f  1
 103r-6.7168785e-003 1.16e+000 7.64e+002  -0.6 2.71e-003   5.1 1.00e+000 9.34e-001f  1
 104r-6.6421932e-003 1.16e+000 1.08e+003  -0.8 5.45e-003   4.6 1.00e+000 4.66e-001f  1
 105r-6.5968363e-003 1.17e+000 1.48e+003  -1.1 8.77e-003   4.1 1.00e+000 6.18e-001f  1
 106r-6.5968523e-003 1.17e+000 1.41e+005  -0.7 9.65e-003   3.7 1.00e+000 3.31e-001f  1
 107r-6.6193118e-003 1.17e+000 4.14e+003  -0.2 2.64e-002   3.2 1.00e+000 1.89e-001f  1
 108r-6.6261698e-003 1.17e+000 5.10e+002  -0.4 4.11e-002   2.7 1.00e+000 1.00e+000f  1
 109r-6.6457509e-003 1.17e+000 8.13e+002  -0.4 4.97e-002   2.2 1.00e+000 1.00e+000f  1
iter    objective    inf_pr   inf_du lg(mu)  ||d||  lg(rg) alpha_du alpha_pr  ls
 110r-6.6628596e-003 1.17e+000 7.21e+002  -0.4 1.32e-001   1.7 1.00e+000 1.00e+000f  1
 111r-6.6772620e-003 1.17e+000 6.25e+002  -0.4 1.76e-001   1.3 1.00e+000 1.00e+000f  1
 112r-6.6765958e-003 1.17e+000 1.52e+004  -0.4 1.75e-003   6.2 3.93e-001 4.05e-001h  1
 113r-6.6776736e-003 1.17e+000 4.19e+005  -0.4 1.24e-003   5.7 1.00e+000 1.00e+000h  1
 114r-6.7810136e-003 1.16e+000 2.86e+003   0.2 4.11e-003   5.3 1.00e+000 1.00e+000f  1
 115r-6.9229532e-003 1.16e+000 4.05e+003   0.2 3.54e-003   4.8 1.00e+000 1.00e+000f  1
 116r-7.3303521e-003 1.16e+000 8.46e+002   0.2 3.52e-003   4.3 1.00e+000 1.00e+000f  1
 117r-7.4014508e-003 1.16e+000 8.77e+002   0.2 6.68e-003   3.8 1.00e+000 1.00e+000f  1
 118r-8.4364932e-003 1.16e+000 3.28e+001   0.2 1.14e-002   3.3 1.00e+000 1.00e+000f  1
 119r-7.7920073e-003 1.16e+000 2.75e+002  -0.5 1.68e-002   2.9 9.25e-001 8.03e-001f  1
iter    objective    inf_pr   inf_du lg(mu)  ||d||  lg(rg) alpha_du alpha_pr  ls
 120r-7.5992040e-003 1.16e+000 2.28e+003  -0.5 2.49e-002   2.4 1.00e+000 1.00e+000f  1
 121r-6.5201581e-003 1.17e+000 6.20e+002  -0.5 3.66e-002   1.9 1.00e+000 9.01e-001f  1
 122r-7.0040416e-003 1.17e+000 3.96e+002  -0.5 5.33e-002   1.4 1.00e+000 1.00e+000f  1
 123r-6.8149052e-003 1.17e+000 3.75e+002  -0.5 1.16e-001   1.0 1.00e+000 1.00e+000f  1
 124r-6.7839160e-003 1.16e+000 3.35e+002  -0.5 2.44e-001   0.5 1.00e+000 1.00e+000f  1
 125r-6.7790229e-003 1.14e+000 3.28e+002  -0.5 3.97e-001   0.0 1.00e+000 1.00e+000f  1
 126r-6.7836012e-003 1.11e+000 9.96e+002  -0.5 1.13e+000  -0.5 1.00e+000 1.00e+000f  1
 127r-6.7839522e-003 1.11e+000 3.00e+003  -0.5 7.97e+000   0.9 1.93e-001 1.20e-001f  1
 128r-6.7922478e-003 1.08e+000 2.28e+003  -0.5 8.87e+000    -  7.32e-001 2.40e-001f  1
 129r-6.8011509e-003 1.08e+000 3.35e+002  -0.5 2.66e-001   0.4 1.00e+000 1.00e+000h  1
iter    objective    inf_pr   inf_du lg(mu)  ||d||  lg(rg) alpha_du alpha_pr  ls
 130r-6.8048978e-003 1.07e+000 1.18e+003  -0.5 3.02e-001  -0.1 1.00e+000 1.00e+000f  1
 131r-6.8051520e-003 1.07e+000 1.61e+003  -0.5 2.51e-003   4.8 9.25e-001 9.33e-001h  1
 132r-6.8053075e-003 1.07e+000 2.60e+002  -0.5 3.35e-003   4.4 1.00e+000 1.00e+000f  1
 133r-6.7823095e-003 1.07e+000 4.93e+002  -0.9 3.43e-003   3.9 1.00e+000 9.22e-001f  1
 134r-6.7649803e-003 1.07e+000 5.13e+002  -0.9 3.86e-004   6.1 1.00e+000 1.00e+000f  1
 135r-6.7595154e-003 1.07e+000 5.70e+002  -2.0 1.61e-004   6.5 1.00e+000 1.00e+000f  1
 136r-6.7467348e-003 1.07e+000 1.04e+003  -2.0 3.49e-004   6.1 1.00e+000 4.57e-001f  1
 137r-6.7471559e-003 1.07e+000 7.81e+002  -2.6 1.46e-004   6.5 1.00e+000 7.56e-001f  1
 138r-6.7472686e-003 1.07e+000 5.31e+002  -2.9 6.40e-005   6.9 1.00e+000 9.61e-001f  1
 139r-6.7479811e-003 1.07e+000 4.99e+002  -3.1 1.68e-004   6.4 1.00e+000 5.16e-001f  1
iter    objective    inf_pr   inf_du lg(mu)  ||d||  lg(rg) alpha_du alpha_pr  ls
 140r-6.7481170e-003 1.07e+000 7.39e+002  -3.5 6.08e-005   6.9 1.00e+000 6.09e-001f  1
 141r-6.7489304e-003 1.07e+000 6.39e+002  -3.8 1.83e-004   6.4 1.00e+000 3.33e-001f  1
 142r-6.7490555e-003 1.07e+000 4.82e+002  -4.0 6.88e-005   6.8 1.00e+000 3.80e-001f  1
 143r-6.7492845e-003 1.07e+000 4.53e+002  -3.7 2.05e-004   6.3 1.00e+000 2.10e-001f  1
 144r-6.7493216e-003 1.07e+000 4.51e+002  -4.3 7.65e-005   6.8 1.00e+000 2.60e-001f  1
 145r-6.7495315e-003 1.07e+000 4.26e+002  -4.1 2.11e-004   6.3 1.00e+000 1.96e-001f  1
 146r-6.7495424e-003 1.07e+000 2.96e+003  -4.7 6.07e-005   6.7 1.00e+000 1.12e-001f  1
 147r-6.7498835e-003 1.07e+000 2.38e+003  -4.6 1.75e-004   6.2 1.00e+000 2.53e-001f  1
 148r-6.7499014e-003 1.07e+000 1.78e+003  -4.9 6.61e-005   6.7 1.00e+000 2.52e-001f  1
 149r-6.7499155e-003 1.07e+000 1.47e+003  -4.8 1.94e-004   6.2 1.00e+000 1.81e-001f  1
iter    objective    inf_pr   inf_du lg(mu)  ||d||  lg(rg) alpha_du alpha_pr  ls
 150r-6.7496454e-003 1.07e+000 8.14e+002  -3.2 6.74e-005   6.6 1.00e+000 3.43e-001f  1
 151r-6.7490403e-003 1.07e+000 6.81e+002  -3.4 1.95e-004   6.1 1.00e+000 2.28e-001f  1
 152r-6.7488185e-003 1.07e+000 4.13e+002  -3.4 7.25e-005   6.6 1.00e+000 4.41e-001f  1
 153r-6.7480752e-003 1.07e+000 5.04e+002  -4.1 2.14e-004   6.1 1.00e+000 2.66e-001f  1
 154r-6.7479630e-003 1.07e+000 5.57e+002  -5.0 7.97e-005   6.5 1.00e+000 3.85e-001f  1
 155r-6.7470496e-003 1.07e+000 4.42e+002  -5.6 2.34e-004   6.0 1.00e+000 2.41e-001f  1
 156r-6.7469812e-003 1.07e+000 5.18e+002  -6.3 8.62e-005   6.5 1.00e+000 1.55e-001f  1
 157r-6.7456104e-003 1.07e+000 5.32e+002  -4.1 2.50e-004   6.0 9.95e-001 2.17e-001f  1
 158r-6.7456207e-003 1.07e+000 4.78e+002  -5.1 9.38e-005   6.4 1.00e+000 8.45e-002f  1
 159r-6.7442674e-003 1.07e+000 4.19e+002  -9.0 2.74e-004   5.9 1.47e-001 1.24e-001f  1
iter    objective    inf_pr   inf_du lg(mu)  ||d||  lg(rg) alpha_du alpha_pr  ls
 160r-6.7439531e-003 1.07e+000 3.54e+002  -5.1 1.00e-004   6.4 1.00e+000 1.74e-001f  1
 161r-6.7413904e-003 1.07e+000 1.29e+003  -2.4 3.08e-004   5.9 3.69e-001 9.97e-002f  1
 162r-6.7404927e-003 1.07e+000 2.50e+002  -3.1 8.63e-005   6.3 1.00e+000 7.41e-001f  1
 163r-6.7405127e-003 1.07e+000 1.85e+002  -3.1 3.40e-005   6.7 1.00e+000 1.00e+000f  1
 164r-6.7406142e-003 1.07e+000 1.94e+002  -3.1 9.84e-005   6.3 1.00e+000 6.64e-001f  1
 165r-6.7405958e-003 1.07e+000 1.74e+002  -3.1 3.60e-005   6.7 1.00e+000 1.00e+000f  1
 166r-6.7404893e-003 1.07e+000 2.27e+002  -3.1 1.08e-004   6.2 1.00e+000 8.07e-001f  1
 167r-6.7403772e-003 1.07e+000 1.72e+002  -3.1 4.01e-005   6.6 1.00e+000 1.00e+000f  1
 168r-6.7404767e-003 1.07e+000 7.78e+002  -4.1 1.26e-004   6.2 1.00e+000 3.91e-001f  1
 169r-6.7405136e-003 1.07e+000 1.61e+003  -4.4 4.91e-005   6.6 1.00e+000 4.03e-001f  1
iter    objective    inf_pr   inf_du lg(mu)  ||d||  lg(rg) alpha_du alpha_pr  ls
 170r-6.7405735e-003 1.07e+000 5.42e+003  -9.0 1.39e-004   6.1 7.43e-001 3.56e-001f  1
 171r-6.7405032e-003 1.07e+000 4.18e+003  -3.8 5.10e-005   6.5 1.00e+000 4.46e-001f  1
 172r-6.7398437e-003 1.07e+000 5.71e+003  -2.9 1.46e-004   6.1 6.73e-001 2.55e-001f  1
 173r-6.7396402e-003 1.07e+000 3.76e+003  -3.3 5.73e-005   6.5 1.00e+000 7.09e-001f  1
 174r-6.7391778e-003 1.07e+000 1.64e+003  -3.3 1.75e-004   6.0 1.00e+000 4.30e-001f  1
 175r-6.7388998e-003 1.07e+000 1.73e+002  -3.3 6.44e-005   6.4 1.00e+000 1.00e+000f  1
 176r-6.7388248e-003 1.07e+000 1.09e+003  -4.2 1.92e-004   6.0 1.00e+000 2.82e-001f  1
 177r-6.7387562e-003 1.07e+000 5.02e+002  -4.1 7.44e-005   6.4 1.00e+000 6.50e-001f  1
 178r-6.7385419e-003 1.07e+000 8.56e+003  -5.1 2.19e-004   5.9 1.00e+000 1.81e-001f  1
 179r-6.7384297e-003 1.07e+000 6.54e+003  -6.2 8.24e-005   6.3 1.00e+000 5.10e-001f  1
iter    objective    inf_pr   inf_du lg(mu)  ||d||  lg(rg) alpha_du alpha_pr  ls
 180r-6.7373579e-003 1.07e+000 1.10e+004  -3.3 2.21e-004   5.8 8.29e-001 1.73e-001f  1
 181r-6.7369458e-003 1.07e+000 6.47e+003  -3.6 6.71e-004   5.4 5.44e-001 9.16e-002f  1
 182r-6.7366641e-003 1.07e+000 6.40e+003  -3.8 2.52e-004   5.8 4.74e-001 2.09e-001f  1
 183r-6.7352350e-003 1.07e+000 2.08e+003  -3.3 7.33e-004   5.3 1.00e+000 2.03e-001f  1
 184r-6.7344742e-003 1.07e+000 2.92e+003  -3.8 2.71e-004   5.7 7.24e-001 3.90e-001f  1
 185r-6.7332047e-003 1.07e+000 3.43e+003  -4.3 7.95e-004   5.3 9.52e-001 1.46e-001f  1
 186r-6.7326378e-003 1.07e+000 2.36e+003  -4.5 2.98e-004   5.7 1.00e+000 2.49e-001f  1
 187r-6.7308442e-003 1.07e+000 2.00e+003  -4.9 8.71e-004   5.2 1.00e+000 1.62e-001f  1
 188r-6.7298633e-003 1.07e+000 1.23e+003  -4.7 3.26e-004   5.6 1.00e+000 3.72e-001f  1
 189r-6.7279740e-003 1.07e+000 1.18e+003  -4.7 9.58e-004   5.2 1.00e+000 1.62e-001f  1
iter    objective    inf_pr   inf_du lg(mu)  ||d||  lg(rg) alpha_du alpha_pr  ls
 190r-6.7279080e-003 1.07e+000 7.48e+002  -5.6 4.68e-005   6.5 1.00e+000 2.74e-001f  1
 191r-6.7274822e-003 1.07e+000 4.95e+002  -6.3 1.37e-004   6.0 1.00e+000 3.18e-001f  1
 192r-6.7273634e-003 1.07e+000 3.27e+002  -6.9 5.16e-005   6.4 1.00e+000 3.68e-001f  1
 193r-6.7270551e-003 1.07e+000 4.02e+002  -7.1 1.52e-004   6.0 1.00e+000 2.21e-001f  1
 194r-6.7269954e-003 1.07e+000 2.79e+002  -7.2 5.72e-005   6.4 1.00e+000 2.36e-001f  1
 195r-6.7268833e-003 1.07e+000 2.47e+002  -7.3 1.65e-004   5.9 1.00e+000 8.08e-002f  1
 196r-6.7268461e-003 1.07e+000 2.11e+002  -7.3 5.65e-005   6.3 1.00e+000 1.49e-001f  1
 197r-6.7263459e-003 1.07e+000 2.25e+002  -7.4 1.69e-004   5.9 1.00e+000 2.56e-001f  1
 198r-6.7263184e-003 1.07e+000 1.53e+003  -7.5 6.35e-005   6.3 1.00e+000 9.94e-002f  1
 199r-6.7259285e-003 1.07e+000 1.44e+003  -6.4 1.90e-004   5.8 1.00e+000 1.20e-001f  1
iter    objective    inf_pr   inf_du lg(mu)  ||d||  lg(rg) alpha_du alpha_pr  ls
 200r-6.7259204e-003 1.07e+000 1.40e+003  -7.2 7.14e-005   6.2 1.00e+000 2.65e-002f  1
 201r-6.7251056e-003 1.07e+000 1.27e+003  -5.7 2.14e-004   5.8 4.27e-001 9.44e-002f  1
 202r-6.7250591e-003 1.07e+000 1.18e+003  -5.0 8.03e-005   6.2 1.00e+000 6.50e-002f  1
 203r-6.7250254e-003 1.07e+000 7.69e+002  -6.3 3.03e-005   6.6 1.00e+000 3.49e-001f  1
 204r-6.7249664e-003 1.07e+000 6.63e+002  -6.0 9.07e-005   6.1 1.00e+000 1.41e-001f  1
 205r-6.7249446e-003 1.07e+000 5.31e+002  -7.3 3.40e-005   6.6 1.00e+000 1.97e-001f  1
 206r-6.7248896e-003 1.07e+000 4.79e+002  -7.0 1.01e-004   6.1 1.00e+000 1.03e-001f  1
 207r-6.7248471e-003 1.07e+000 3.25e+002  -8.0 3.79e-005   6.5 1.00e+000 3.20e-001f  1
 208r-6.7247092e-003 1.07e+000 2.58e+002  -7.6 1.14e-004   6.0 1.00e+000 2.09e-001f  1
 209r-6.7247018e-003 1.07e+000 2.45e+002  -9.0 4.26e-005   6.5 1.00e+000 4.75e-002f  1
iter    objective    inf_pr   inf_du lg(mu)  ||d||  lg(rg) alpha_du alpha_pr  ls
 210r-6.7243964e-003 1.07e+000 2.07e+002  -9.0 1.28e-004   6.0 1.00e+000 3.67e-001f  1
 211r-6.7242932e-003 1.07e+000 1.24e+002  -9.0 4.80e-005   6.4 1.00e+000 5.72e-001f  1
 212r-6.7242910e-003 1.07e+000 1.24e+002  -9.0 1.44e-004   5.9 1.00e+000 2.05e-003f  1
 213r-6.7241220e-003 1.07e+000 1.24e+002  -7.2 5.40e-005   6.4 1.00e+000 7.97e-001f  1
 214r-6.7239982e-003 1.07e+000 1.24e+002  -6.8 1.62e-004   5.9 1.00e+000 7.78e-002f  1
 215r-6.7238819e-003 1.07e+000 1.24e+002  -7.6 6.07e-005   6.3 1.00e+000 2.58e-001f  1
 216r-6.7238730e-003 1.07e+000 1.24e+002  -7.8 1.82e-004   5.8 8.89e-001 4.20e-003f  1
 217r-6.7237329e-003 1.07e+000 1.24e+002  -9.0 6.83e-005   6.3 1.00e+000 2.70e-001f  1
 218r-6.7236820e-003 1.07e+000 2.38e+002  -8.8 2.05e-004   5.8 6.60e-001 1.93e-002f  1
 219r-6.7236430e-003 1.07e+000 3.51e+002  -7.9 7.68e-005   6.2 1.00e+000 6.64e-002f  1
iter    objective    inf_pr   inf_du lg(mu)  ||d||  lg(rg) alpha_du alpha_pr  ls
 220r-6.7230726e-003 1.07e+000 2.94e+002  -7.2 2.30e-004   5.7 4.75e-001 1.67e-001f  1
 221r-6.7229014e-003 1.07e+000 2.18e+002  -7.8 8.61e-005   6.2 1.00e+000 2.54e-001f  1
 222r-6.7228829e-003 1.07e+000 2.19e+002  -6.1 2.58e-004   5.7 3.19e-001 4.00e-003f  1
 223r-6.7224479e-003 1.07e+000 1.83e+002  -6.9 9.69e-005   6.1 1.00e+000 5.48e-001f  1
 224r-6.7204634e-003 1.07e+000 1.78e+002  -9.0 2.91e-004   5.6 1.90e-001 2.79e-001f  1
 225r-6.7204588e-003 1.07e+000 1.77e+002  -7.9 1.09e-004   6.1 1.00e+000 7.48e-003f  1
 226r-6.7203214e-003 1.07e+000 1.86e+002  -9.0 3.27e-004   5.6 1.13e-002 6.76e-003f  1
 227r-6.7202696e-003 1.07e+000 1.75e+002  -8.3 1.23e-004   6.0 1.00e+000 7.41e-002f  1
 228r-6.7130853e-003 1.07e+000 6.78e+002  -9.0 1.08e-003   5.5 3.14e-004 8.48e-002f  1
 229r-6.7130832e-003 1.07e+000 6.76e+002  -8.9 1.37e-004   6.0 1.00e+000 2.40e-003f  1
iter    objective    inf_pr   inf_du lg(mu)  ||d||  lg(rg) alpha_du alpha_pr  ls
 230r-6.7130732e-003 1.07e+000 6.39e+002  -8.6 5.22e-005   6.4 1.00e+000 5.58e-002f  1
 231r-6.7129867e-003 1.07e+000 5.99e+002  -9.0 1.57e-004   5.9 1.00e+000 7.13e-002f  1
 232r-6.7129462e-003 1.07e+000 4.96e+002  -9.0 5.88e-005   6.3 1.00e+000 1.77e-001f  1
 233r-6.7128470e-003 1.07e+000 4.76e+002  -9.0 1.76e-004   5.8 1.00e+000 5.23e-002f  1
 234r-6.7128211e-003 1.07e+000 4.52e+002  -9.0 6.61e-005   6.3 1.00e+000 5.52e-002f  1
 235r-6.7120928e-003 1.07e+000 3.62e+002  -9.0 1.98e-004   5.8 7.74e-001 3.06e-001f  1
 236r-6.7120883e-003 1.07e+000 3.60e+002  -9.0 7.44e-005   6.2 1.00e+000 8.21e-003f  1
 237r-6.7120738e-003 1.07e+000 3.59e+002  -9.0 2.24e-004   5.7 5.65e-001 4.78e-003f  1
 238r-6.7117991e-003 1.07e+000 2.19e+002  -8.9 8.40e-005   6.2 1.00e+000 4.37e-001f  1
 239r-6.7117929e-003 1.07e+000 2.19e+002  -9.0 2.47e-004   5.7 3.77e-001 1.49e-003f  1
iter    objective    inf_pr   inf_du lg(mu)  ||d||  lg(rg) alpha_du alpha_pr  ls
 240r-6.7117876e-003 1.07e+000 2.18e+002  -9.0 9.48e-005   6.1 1.00e+000 7.21e-003f  1
 241r-6.7111518e-003 1.07e+000 2.39e+002  -9.0 2.84e-004   5.6 2.27e-001 1.05e-001f  1
 242r-6.7111493e-003 1.07e+000 2.39e+002  -9.0 1.07e-004   6.1 1.00e+000 2.87e-003f  1
 243r-6.7108898e-003 1.07e+000 2.51e+002  -9.0 3.22e-004   5.6 1.17e-001 2.54e-002f  1
 244r-6.7102974e-003 1.07e+000 1.38e+002  -8.6 1.21e-004   6.0 1.00e+000 6.03e-001f  1
 245r-6.7102310e-003 1.07e+000 1.43e+002  -9.0 3.94e-004   5.5 3.13e-002 2.01e-003f  1
 246r-6.7102308e-003 1.07e+000 1.42e+002  -9.0 1.36e-004   6.0 1.00e+000 1.28e-004f  1
 247r-6.7100691e-003 1.07e+000 1.25e+002  -9.0 5.09e-005   6.4 1.00e+000 4.85e-001f  1
 248r-6.7094943e-003 1.07e+000 1.25e+002  -9.0 1.53e-004   5.9 1.00e+000 4.07e-001f  1
 249r-6.7094902e-003 1.07e+000 1.25e+002  -9.0 5.72e-005   6.3 1.00e+000 1.09e-002f  1
iter    objective    inf_pr   inf_du lg(mu)  ||d||  lg(rg) alpha_du alpha_pr  ls
 250r-6.7094885e-003 1.07e+000 1.25e+002  -9.0 1.72e-004   5.9 1.00e+000 9.88e-004f  1
 251r-6.7094045e-003 1.07e+000 1.25e+002  -9.0 6.43e-005   6.3 1.00e+000 1.91e-001f  1
 252r-6.7093967e-003 1.07e+000 1.25e+002  -9.0 1.93e-004   5.8 9.06e-001 3.64e-003f  1
 253r-6.7093009e-003 1.07e+000 1.25e+002  -9.0 7.24e-005   6.2 1.00e+000 1.89e-001f  1
 254r-6.7092759e-003 1.07e+000 1.25e+002  -9.0 2.17e-004   5.8 6.56e-001 9.05e-003f  1
 255r-6.7090771e-003 1.07e+000 1.26e+002  -8.6 8.14e-005   6.2 1.00e+000 3.39e-001f  1
 256r-6.7090724e-003 1.07e+000 1.21e+002  -9.0 2.37e-004   5.7 4.49e-001 1.28e-003f  1
 257r-6.7090649e-003 1.07e+000 1.22e+002  -9.0 9.15e-005   6.1 1.00e+000 1.12e-002f  1
 258r-6.7074836e-003 1.07e+000 1.52e+002  -9.0 2.75e-004   5.7 2.76e-001 2.99e-001f  1
 259r-6.7074772e-003 1.07e+000 1.51e+002  -9.0 1.03e-004   6.1 1.00e+000 8.02e-003f  1
iter    objective    inf_pr   inf_du lg(mu)  ||d||  lg(rg) alpha_du alpha_pr  ls
 260r-6.7074548e-003 1.07e+000 1.52e+002  -9.0 3.09e-004   5.6 1.50e-001 2.59e-003f  1
 261r-6.7073772e-003 1.07e+000 1.45e+002  -9.0 1.16e-004   6.0 1.00e+000 8.33e-002f  1
 262r-6.7073290e-003 1.07e+000 1.48e+002  -9.0 3.42e-004   5.6 5.07e-002 2.25e-003f  1
 263r-6.7072779e-003 1.07e+000 1.45e+002  -9.0 1.28e-004   6.0 1.00e+000 4.30e-002f  1
 264r-6.7069685e-003 1.07e+000 1.23e+002  -9.0 4.79e-005   6.4 1.00e+000 9.04e-001f  1
 265r-6.7068770e-003 1.07e+000 1.23e+002  -9.0 1.44e-004   5.9 1.00e+000 6.60e-002f  1
 266r-6.7068762e-003 1.07e+000 1.23e+002  -9.0 5.38e-005   6.4 1.00e+000 1.90e-003f  1
 267r-6.7067460e-003 1.07e+000 4.69e+002  -9.0 1.61e-004   5.9 1.00e+000 7.51e-002f  1
 268r-6.7066156e-003 1.07e+000 3.37e+002  -9.0 6.05e-005   6.3 1.00e+000 2.82e-001f  1
 269r-6.7066130e-003 1.07e+000 3.36e+002  -7.0 1.81e-004   5.8 9.39e-001 1.24e-003f  1
iter    objective    inf_pr   inf_du lg(mu)  ||d||  lg(rg) alpha_du alpha_pr  ls
 270r-6.7065349e-003 1.07e+000 2.88e+002  -7.4 6.79e-005   6.3 1.00e+000 1.48e-001f  1
 271r-6.7064204e-003 1.07e+000 3.18e+002  -5.5 2.09e-004   5.8 7.27e-001 4.45e-002f  1
 272r-6.7064103e-003 1.07e+000 1.20e+003  -7.0 7.82e-005   6.2 1.00e+000 2.02e-002f  1
 273r-6.7060978e-003 1.07e+000 1.48e+003  -9.0 2.35e-004   5.7 1.34e-001 9.99e-002f  1
 274r-6.7059430e-003 1.07e+000 9.59e+002  -6.5 8.80e-005   6.2 1.00e+000 2.36e-001f  1
 275r-6.7057861e-003 1.07e+000 9.86e+002  -4.7 2.63e-004   5.7 3.40e-001 3.47e-002f  1
 276r-6.7055848e-003 1.07e+000 4.34e+002  -5.4 9.88e-005   6.1 1.00e+000 1.67e-001f  1
 277r-6.7015282e-003 1.07e+000 4.34e+002  -4.5 2.96e-004   5.6 3.72e-001 5.85e-001f  1
 278r-6.7015167e-003 1.07e+000 7.86e+003  -6.0 1.11e-004   6.1 1.00e+000 2.32e-002f  1
 279r-6.7014741e-003 1.07e+000 9.32e+003  -7.0 4.19e-005   6.5 1.00e+000 3.11e-001f  1
iter    objective    inf_pr   inf_du lg(mu)  ||d||  lg(rg) alpha_du alpha_pr  ls
 280r-6.7014149e-003 1.07e+000 1.14e+004  -9.0 1.25e-004   6.0 1.39e-001 6.95e-002f  1
 281r-6.7013769e-003 1.07e+000 8.62e+003  -5.7 4.70e-005   6.4 1.00e+000 1.94e-001f  1
 282r-6.7013141e-003 1.07e+000 8.02e+003  -5.0 1.41e-004   6.0 1.00e+000 4.62e-002f  1
 283r-6.7010174e-003 1.07e+000 2.03e+003  -4.4 5.25e-005   6.4 1.00e+000 6.56e-001f  1
 284r-6.7009436e-003 1.07e+000 5.58e+003  -5.4 1.42e-004   5.9 4.20e-001 4.47e-002f  1
 285r-6.7006532e-003 1.07e+000 2.72e+003  -5.2 5.42e-005   6.3 1.00e+000 7.68e-001f  1
 286r-6.7001787e-003 1.07e+000 1.39e+004  -3.9 1.61e-004   5.8 9.95e-001 1.64e-001f  1
 287r-6.6995388e-003 1.07e+000 1.53e+004  -4.2 6.04e-005   6.3 3.95e-001 6.05e-001f  1
 288r-6.6984935e-003 1.07e+000 1.06e+004  -9.0 1.83e-004   5.8 3.93e-001 2.89e-001f  1
 289r-6.6983532e-003 1.07e+000 7.76e+003  -4.9 6.86e-005   6.2 1.00e+000 2.77e-001f  1
iter    objective    inf_pr   inf_du lg(mu)  ||d||  lg(rg) alpha_du alpha_pr  ls
 290r-6.6931699e-003 1.07e+000 3.72e+003  -3.8 2.03e-004   5.7 1.96e-001 3.45e-001f  1
 291r-6.6931280e-003 1.07e+000 2.17e+003  -4.3 6.15e-004   5.3 4.69e-001 3.54e-002f  1
 292r-6.6921037e-003 1.07e+000 2.31e+003  -4.0 1.83e-003   4.8 1.00e+000 7.38e-002f  1
 293r-6.6880827e-003 1.07e+000 2.04e+004  -2.8 5.21e-003   4.3 4.69e-001 6.50e-002f  1
 294r-6.6785687e-003 1.07e+000 5.03e+003  -3.3 1.37e-002   3.8 3.51e-001 4.84e-002f  1
 295r-6.6665459e-003 1.07e+000 7.36e+003  -9.0 3.88e-002   3.4 8.09e-002 2.36e-002f  1
 296r-6.6525634e-003 1.07e+000 1.82e+004  -3.1 8.65e-002   2.9 2.12e-001 9.16e-003f  1
 297r-6.5562152e-003 1.07e+000 5.68e+003  -2.6 1.74e-001   2.4 2.94e-001 2.63e-002f  1
 298r-6.5553495e-003 1.07e+000 1.20e+004  -1.8 3.94e-001   1.9 5.12e-002 1.63e-002f  1
 299r-6.5541791e-003 1.07e+000 5.36e+003  -2.2 1.01e+000   1.5 1.57e-001 8.68e-003f  1
iter    objective    inf_pr   inf_du lg(mu)  ||d||  lg(rg) alpha_du alpha_pr  ls
 300r-6.5518932e-003 1.08e+000 1.04e+004  -2.3 2.36e-001   1.9 1.87e-001 6.23e-002f  1
 301r-6.5512379e-003 1.08e+000 6.62e+003  -2.3 2.53e-001   1.4 4.57e-001 4.12e-002f  1
 302r-6.5507427e-003 1.08e+000 4.58e+003  -2.8 9.42e-002   1.8 1.00e+000 2.60e-001f  1
 303r-6.5543761e-003 1.08e+000 4.47e+003  -2.4 2.05e-001   1.3 1.00e+000 1.27e-001f  1
 304r-6.5601034e-003 1.08e+000 1.65e+003  -2.7 7.69e-002   1.8 1.00e+000 3.87e-001f  1
 305r-6.5664187e-003 1.08e+000 1.44e+003  -2.4 1.67e-001   1.3 1.00e+000 1.23e-001f  1
 306r-6.5758586e-003 1.08e+000 9.21e+002  -3.0 6.35e-002   1.7 1.00e+000 5.66e-001f  1
 307r-6.5812725e-003 1.08e+000 1.11e+003  -3.1 1.37e-001   1.2 1.00e+000 1.21e-001f  1
 308r-6.6004727e-003 1.08e+000 7.07e+002  -2.4 3.23e-001   0.8 1.00e+000 1